10J3M/DAT/10J3MUNR-6.dat
10 3
35.7398 45.0122
29.3323 11.5205
48.8935 43.5564
16.6524 5.6867
27.8929 23.6676
8.04 34.4744
5.784 46.2287
1.3876 40.9105
39.6608 5.3087
30.5725 19.2624
275.6281