10J3M/SOL/10J3MUNR-6.sol
solution status: optimal solution found
objective value:                     73.9887333333333
x#1#2                                               1 	(obj:0)
x#2#1                                               1 	(obj:0)
x#3#2                                               1 	(obj:0)
x#4#3                                               1 	(obj:0)
x#5#1                                               1 	(obj:0)
x#6#2                               0.244252949521116 	(obj:0)
x#6#3                               0.755747050478884 	(obj:0)
x#7#1                                               1 	(obj:0)
x#8#1                               0.788760184381963 	(obj:0)
x#8#2                               0.211239815618037 	(obj:0)
x#9#1                                               1 	(obj:0)
x#10#1                                              1 	(obj:0)
z                                    73.9887333333333 	(obj:1)
